NAME          
ROWS
 N  OBJ
 L  c1
 L  c2
COLUMNS
    MARKER    'MARKER'                 'INTORG'
    x[1]      c1        57
    x[1]      c2        241
    x[1]      OBJ       -262
    x[2]      c1        731
    x[2]      c2        151
    x[2]      OBJ       -270
    x[3]      c1        926
    x[3]      c2        653
    x[3]      OBJ       -557
    x[4]      c1        943
    x[4]      c2        827
    x[4]      OBJ       -620
    x[5]      c1        706
    x[5]      c2        824
    x[5]      OBJ       -503
    x[6]      c1        585
    x[6]      c2        462
    x[6]      OBJ       -556
    x[7]      c1        830
    x[7]      c2        96
    x[7]      OBJ       -862
    x[8]      c1        379
    x[8]      c2        213
    x[8]      OBJ       -91
    x[9]      c1        413
    x[9]      c2        764
    x[9]      OBJ       -994
    x[10]     c1        161
    x[10]     c2        840
    x[10]     OBJ       -238
    x[11]     c1        678
    x[11]     c2        253
    x[11]     OBJ       -762
    x[12]     c1        98
    x[12]     c2        395
    x[12]     OBJ       -968
    x[13]     c1        942
    x[13]     c2        763
    x[13]     OBJ       -284
    x[14]     c1        73
    x[14]     c2        765
    x[14]     OBJ       -160
    x[15]     c1        115
    x[15]     c2        915
    x[15]     OBJ       -769
    x[16]     c1        416
    x[16]     c2        353
    x[16]     OBJ       -486
    x[17]     c1        752
    x[17]     c2        930
    x[17]     OBJ       -50
    x[18]     c1        158
    x[18]     c2        656
    x[18]     OBJ       -3
    x[19]     c1        621
    x[19]     c2        194
    x[19]     OBJ       -480
    x[20]     c1        930
    x[20]     c2        876
    x[20]     OBJ       -99
    x[21]     c1        991
    x[21]     c2        442
    x[21]     OBJ       -4
    x[22]     c1        982
    x[22]     c2        730
    x[22]     OBJ       -748
    x[23]     c1        129
    x[23]     c2        675
    x[23]     OBJ       -912
    x[24]     c1        22
    x[24]     c2        714
    x[24]     OBJ       -787
    x[25]     c1        20
    x[25]     c2        209
    x[25]     OBJ       -706
    x[26]     c1        728
    x[26]     c2        273
    x[26]     OBJ       -564
    x[27]     c1        770
    x[27]     c2        387
    x[27]     OBJ       -52
    x[28]     c1        117
    x[28]     c2        976
    x[28]     OBJ       -80
    x[29]     c1        385
    x[29]     c2        61
    x[29]     OBJ       -527
    x[30]     c1        937
    x[30]     c2        341
    x[30]     OBJ       -43
RHS
    rhs       c1        7798
    rhs       c2        7990
RANGES
BOUNDS
 LO bounds    x[1]      0
 PL bounds    x[1]
 LO bounds    x[2]      0
 PL bounds    x[2]
 LO bounds    x[3]      0
 PL bounds    x[3]
 LO bounds    x[4]      0
 PL bounds    x[4]
 LO bounds    x[5]      0
 PL bounds    x[5]
 LO bounds    x[6]      0
 PL bounds    x[6]
 LO bounds    x[7]      0
 PL bounds    x[7]
 LO bounds    x[8]      0
 PL bounds    x[8]
 LO bounds    x[9]      0
 PL bounds    x[9]
 LO bounds    x[10]     0
 PL bounds    x[10]
 LO bounds    x[11]     0
 PL bounds    x[11]
 LO bounds    x[12]     0
 PL bounds    x[12]
 LO bounds    x[13]     0
 PL bounds    x[13]
 LO bounds    x[14]     0
 PL bounds    x[14]
 LO bounds    x[15]     0
 PL bounds    x[15]
 LO bounds    x[16]     0
 PL bounds    x[16]
 LO bounds    x[17]     0
 PL bounds    x[17]
 LO bounds    x[18]     0
 PL bounds    x[18]
 LO bounds    x[19]     0
 PL bounds    x[19]
 LO bounds    x[20]     0
 PL bounds    x[20]
 LO bounds    x[21]     0
 PL bounds    x[21]
 LO bounds    x[22]     0
 PL bounds    x[22]
 LO bounds    x[23]     0
 PL bounds    x[23]
 LO bounds    x[24]     0
 PL bounds    x[24]
 LO bounds    x[25]     0
 PL bounds    x[25]
 LO bounds    x[26]     0
 PL bounds    x[26]
 LO bounds    x[27]     0
 PL bounds    x[27]
 LO bounds    x[28]     0
 PL bounds    x[28]
 LO bounds    x[29]     0
 PL bounds    x[29]
 LO bounds    x[30]     0
 PL bounds    x[30]
ENDATA
